100
150
100
99
99
98
98
97
97
96
95
94
92
92
92
90
86
86
85
85
83
83
74
74
73
73
73
72
71
71
71
70
70
70
70
69
69
67
67
66
66
66
66
65
65
63
63
62
61
57
56
56
56
55
54
54
53
53
53
51
49
47
47
47
46
46
45
44
44
44
42
41
40
40
37
37
35
35
35
35
33
32
32
32
32
31
31
30
28
28
27
27
27
26
24
23
22
21
21
21
21
20
